solution status: time limit reached
objective value:                           102604.998
y#1                                                 1 	(obj:5700)
y#2                                                 1 	(obj:5700)
y#14                                                1 	(obj:5700)
y#15                                                1 	(obj:5700)
y#19                                                1 	(obj:5700)
y#23                                                1 	(obj:5700)
y#24                                                1 	(obj:5700)
y#25                                                1 	(obj:5700)
y#27                                                1 	(obj:5700)
y#29                                                1 	(obj:5700)
y#33                                                1 	(obj:5700)
y#34                                                1 	(obj:5700)
y#35                                                1 	(obj:5700)
y#36                                                1 	(obj:5700)
y#37                                                1 	(obj:5700)
y#38                                                1 	(obj:5700)
y#39                                                1 	(obj:5700)
y#40                                                1 	(obj:5700)
x#1#25                                              1 	(obj:0.00714)
x#2#35                                              1 	(obj:0.01173)
x#3#27                                              1 	(obj:0.01649)
x#4#29                                              1 	(obj:0.00442)
x#5#25                                              1 	(obj:0.03536)
x#6#39                                              1 	(obj:0.02108)
x#7#19                                              1 	(obj:0.017)
x#8#15                                              1 	(obj:0.02992)
x#9#33                                              1 	(obj:0.0204)
x#10#14                                             1 	(obj:0.08959)
x#11#38                                             1 	(obj:0.0119)
x#12#37                                             1 	(obj:0.05253)
x#13#35                                             1 	(obj:0.01955)
x#14#2                                              1 	(obj:0.01309)
x#15#35                                             1 	(obj:0.01564)
x#16#1                                              1 	(obj:0.01105)
x#17#38                                             1 	(obj:0.01785)
x#18#29                                             1 	(obj:0.00425)
x#19#25                                             1 	(obj:0.03349)
x#20#1                                              1 	(obj:0.02771)
x#21#39                                             1 	(obj:0.02924)
x#22#23                                             1 	(obj:0.07089)
x#23#23                                             1 	(obj:0.02924)
x#24#27                                             1 	(obj:0.01513)
x#25#38                                             1 	(obj:0.0238)
x#26#36                                             1 	(obj:0.02856)
x#27#35                                             1 	(obj:0.04896)
x#28#23                                             1 	(obj:0.03927)
x#29#33                                             1 	(obj:0.02227)
x#30#14                                             1 	(obj:0.02176)
x#31#34                                             1 	(obj:0.01394)
x#32#23                                             1 	(obj:0.01445)
x#33#34                                             1 	(obj:0.02023)
x#34#38                                             1 	(obj:0.02737)
x#35#37                                             1 	(obj:0.13583)
x#36#2                                              1 	(obj:0.02074)
x#37#40                                             1 	(obj:0.02159)
x#38#39                                             1 	(obj:0.02669)
x#39#15                                             1 	(obj:0.05066)
x#40#36                                             1 	(obj:0.00918)
x#41#29                                             1 	(obj:0.01496)
x#42#33                                             1 	(obj:0.05576)
x#43#1                                              1 	(obj:0.01853)
x#44#23                                             1 	(obj:0.01955)
x#45#39                                             1 	(obj:0.00969)
x#46#37                                             1 	(obj:0.06205)
x#47#25                                             1 	(obj:0.04811)
x#48#27                                             1 	(obj:0.00782)
x#49#14                                             1 	(obj:0.05049)
x#50#33                                             1 	(obj:0.03859)
x#51#27                                             1 	(obj:0.01156)
x#52#39                                             1 	(obj:0.01768)
x#53#2                                              1 	(obj:0.00306)
x#54#29                                             1 	(obj:0.0051)
x#55#38                                             1 	(obj:0.01887)
x#56#36                                             1 	(obj:0.02924)
x#57#33                                             1 	(obj:0.00527)
x#58#40                                             1 	(obj:0.02261)
x#59#27                                             1 	(obj:0.03944)
x#60#38                                             1 	(obj:0.01717)
x#61#36                                             1 	(obj:0.0221)
x#62#24                                             1 	(obj:0.01156)
x#63#24                                             1 	(obj:0.02091)
x#64#19                                             1 	(obj:0.01139)
x#65#27                                             1 	(obj:0.02584)
x#66#15                                             1 	(obj:0.00408)
x#67#38                                             1 	(obj:0.02601)
x#68#1                                              1 	(obj:0.01802)
x#69#34                                             1 	(obj:0.01088)
x#70#24                                             1 	(obj:0.03553)
x#71#15                                             1 	(obj:0.01921)
x#72#38                                             1 	(obj:0.0748)
x#73#36                                             1 	(obj:0.02227)
x#74#29                                             1 	(obj:0.01615)
x#75#15                                             1 	(obj:0.03179)
x#76#40                                             1 	(obj:0.02992)
x#77#40                                             1 	(obj:0.03689)
x#78#29                                             1 	(obj:0.00901)
x#79#25                                             1 	(obj:0.01513)
x#80#25                                             1 	(obj:0.01156)
x#81#25                                             1 	(obj:0.01564)
x#82#1                                              1 	(obj:0.06613)
x#83#25                                             1 	(obj:0.01394)
x#84#35                                             1 	(obj:0.01139)
x#85#40                                             1 	(obj:0.01122)
x#86#14                                             1 	(obj:0.04675)
x#87#35                                             1 	(obj:0.02618)
x#88#25                                             1 	(obj:0.00765)
x#89#23                                             1 	(obj:0.03655)
x#90#34                                             1 	(obj:0.02074)
x#91#2                                              1 	(obj:0.02397)
x#92#36                                             1 	(obj:0.0204)
x#93#19                                             1 	(obj:0.01649)
x#94#40                                             1 	(obj:0.03111)
x#95#24                                             1 	(obj:0.02176)
x#96#19                                             1 	(obj:0.0187)
x#97#34                                             1 	(obj:0.01632)
x#98#14                                             1 	(obj:0.01258)
x#99#25                                             1 	(obj:0.01853)
x#100#37                                            1 	(obj:0.06766)
x#101#34                                            1 	(obj:0.02839)
x#102#19                                            1 	(obj:0.06086)
x#103#24                                            1 	(obj:0.03842)
x#104#36                                            1 	(obj:0.02601)
x#105#40                                            1 	(obj:0.01649)
x#106#40                                            1 	(obj:0.03111)
x#107#35                                            1 	(obj:0.02805)
x#108#2                                             1 	(obj:0.00799)
x#109#37                                            1 	(obj:0.085)
x#110#40                                            1 	(obj:0.03094)
x#111#1                                             1 	(obj:0.01428)
x#112#1                                             1 	(obj:0.00459)
x#113#39                                            1 	(obj:0.0102)
x#114#33                                            1 	(obj:0.05389)
x#115#1                                             1 	(obj:0.00663)
x#116#15                                            1 	(obj:0.01496)
x#117#14                                            1 	(obj:0.05457)
x#118#14                                            1 	(obj:0.00204)
x#119#2                                             1 	(obj:0.01547)
x#120#38                                            1 	(obj:0.0306)
x#121#33                                            1 	(obj:0.01275)
x#122#19                                            1 	(obj:0.00102)
x#123#24                                            1 	(obj:0.03349)
x#124#2                                             1 	(obj:0.03672)
x#125#2                                             1 	(obj:0.03111)
x#126#19                                            1 	(obj:0.02193)
x#127#37                                            1 	(obj:0.03417)
x#128#19                                            1 	(obj:0.01955)
x#129#19                                            1 	(obj:0.03927)
x#130#24                                            1 	(obj:0.01377)
x#131#33                                            1 	(obj:0.04624)
x#132#29                                            1 	(obj:0.0476)
x#133#15                                            1 	(obj:0.03196)
x#134#2                                             1 	(obj:0.00119)
x#135#19                                            1 	(obj:0.0204)
x#136#34                                            1 	(obj:0.02261)
x#137#27                                            1 	(obj:0.01377)
x#138#24                                            1 	(obj:0.01241)
x#139#24                                            1 	(obj:0.01649)
x#140#39                                            1 	(obj:0.03417)
x#141#34                                            1 	(obj:0.00901)
x#142#14                                            1 	(obj:0.05525)
x#143#39                                            1 	(obj:0.01938)
x#144#14                                            1 	(obj:0.04097)
x#145#25                                            1 	(obj:0.02397)
x#146#29                                            1 	(obj:0.01122)
x#147#33                                            1 	(obj:0.01904)
x#148#15                                            1 	(obj:0.02431)
x#149#33                                            1 	(obj:0.01904)
x#150#40                                            1 	(obj:0.02975)
x#151#35                                            1 	(obj:0.0034)
x#152#40                                            1 	(obj:0.03196)
x#153#35                                            1 	(obj:0.00306)
x#154#36                                            1 	(obj:0.02703)
x#155#34                                            1 	(obj:0.00952)
x#156#24                                            1 	(obj:0.05066)
x#157#33                                            1 	(obj:0.0357)
x#158#38                                            1 	(obj:0.01717)
x#159#23                                            1 	(obj:0.05219)
x#160#34                                            1 	(obj:0.00595)
x#161#25                                            1 	(obj:0.01122)
x#162#15                                            1 	(obj:0.04029)
x#163#1                                             1 	(obj:0.01734)
x#164#24                                            1 	(obj:0.02992)
x#165#38                                            1 	(obj:0.02227)
x#166#29                                            1 	(obj:0.0357)
x#167#23                                            1 	(obj:0.04437)
x#168#2                                             1 	(obj:0.00697)
x#169#29                                            1 	(obj:0.01615)
x#170#1                                             1 	(obj:0.0153)
x#171#19                                            1 	(obj:0.01088)
x#172#39                                            1 	(obj:0.01955)
x#173#23                                            1 	(obj:0.03791)
x#174#38                                            1 	(obj:0.01003)
x#175#2                                             1 	(obj:0.0136)
x#176#23                                            1 	(obj:0.03213)
x#177#34                                            1 	(obj:0.00204)
x#178#36                                            1 	(obj:0.02125)
x#179#39                                            1 	(obj:0.03179)
x#180#19                                            1 	(obj:0.00595)
x#181#1                                             1 	(obj:0.02958)
x#182#24                                            1 	(obj:0.01326)
x#183#36                                            1 	(obj:0.01734)
x#184#27                                            1 	(obj:0.02091)
x#185#35                                            1 	(obj:0.01105)
x#186#27                                            1 	(obj:0.01224)
x#187#40                                            1 	(obj:0.03281)
x#188#35                                            1 	(obj:0.0221)
x#189#15                                            1 	(obj:0.04114)
x#190#14                                            1 	(obj:0.01683)
x#191#23                                            1 	(obj:0.04403)
x#192#36                                            1 	(obj:0.01887)
x#193#15                                            1 	(obj:0.02584)
x#194#27                                            1 	(obj:0.0068)
x#195#15                                            1 	(obj:0.03485)
x#196#39                                            1 	(obj:0.01819)
x#197#36                                            1 	(obj:0.03434)
x#198#14                                            1 	(obj:0.00544)
x#199#29                                            1 	(obj:0.0187)
x#200#27                                            1 	(obj:0.02703)
